(set-logic SLHV)
(declare-hvar emp IntHeap)
(declare-locvar nil IntLoc)
(declare-datatype pt_record_0 ((Pt_R_0 (loc IntLoc))))
(declare-datatype pt_record_1 ((Pt_R_1 (data Int))))
(declare-const d13 Int)
(declare-locvar l19 IntLoc)
(declare-hvar ah8 IntHeap)
(declare-hvar AH_0 IntHeap)
(declare-const d12 Int)
(declare-locvar l17 IntLoc)
(declare-hvar h5 IntHeap)
(declare-hvar H_0 IntHeap)
(declare-locvar l18 IntLoc)
(declare-const loc_0 Int)
(assert
 (let (($x780 (or (= H_0 (uplus h5 (pt l17 (Pt_R_0 l18)))) (= H_0 (uplus h5 (pt l17 (Pt_R_1 d12)))))))
 (let (($x339 (and (and false $x780) (= AH_0 (uplus ah8 (pt l19 (Pt_R_1 d13)))))))
 (let (($x270 (= loc_0 1)))
 (let (($x273 (and (and (= H_0 emp) (= AH_0 emp)) $x270)))
 (and $x273 $x339))))))
(check-sat)
